NAME          BLANK   
ROWS
 N  OBJROW
 L  R0000000
COLUMNS
    C0000000  OBJROW     -683.         R0000000  544.        
    C0000001  OBJROW     -745.         R0000000  379.        
    C0000002  OBJROW     -99.          R0000000  979.        
    C0000003  OBJROW     -688.         R0000000  334.        
    C0000004  OBJROW     -985.         R0000000  86.         
    C0000005  OBJROW     -485.         R0000000  923.        
    C0000006  OBJROW     -118.         R0000000  512.        
    C0000007  OBJROW     -744.         R0000000  868.        
    C0000008  OBJROW     -817.         R0000000  563.        
    C0000009  OBJROW     -481.         R0000000  264.        
    C0000010  OBJROW     -458.         R0000000  297.        
    C0000011  OBJROW     -307.         R0000000  400.        
    C0000012  OBJROW     -38.          R0000000  257.        
    C0000013  OBJROW     -740.         R0000000  602.        
    C0000014  OBJROW     -182.         R0000000  175.        
    C0000015  OBJROW     -543.         R0000000  423.        
    C0000016  OBJROW     -615.         R0000000  989.        
    C0000017  OBJROW     -315.         R0000000  558.        
    C0000018  OBJROW     -414.         R0000000  589.        
    C0000019  OBJROW     -694.         R0000000  615.        
RHS
    RHS       R0000000  14156.      
BOUNDS
 BV BOUND     C0000000  1.          
 BV BOUND     C0000001  1.          
 BV BOUND     C0000002  1.          
 BV BOUND     C0000003  1.          
 BV BOUND     C0000004  1.          
 BV BOUND     C0000005  1.          
 BV BOUND     C0000006  1.          
 BV BOUND     C0000007  1.          
 BV BOUND     C0000008  1.          
 BV BOUND     C0000009  1.          
 BV BOUND     C0000010  1.          
 BV BOUND     C0000011  1.          
 BV BOUND     C0000012  1.          
 BV BOUND     C0000013  1.          
 BV BOUND     C0000014  1.          
 BV BOUND     C0000015  1.          
 BV BOUND     C0000016  1.          
 BV BOUND     C0000017  1.          
 BV BOUND     C0000018  1.          
 BV BOUND     C0000019  1.          
ENDATA
